; QGCP model=18 n=5 opts={'-m': '18', '-x': ''}
; color-variable model (pb)
(declare-const c_0_0_0 Int)
(assert (and (>= c_0_0_0 0) (<= c_0_0_0 1)))
(declare-const c_0_0_1 Int)
(assert (and (>= c_0_0_1 0) (<= c_0_0_1 1)))
(declare-const c_0_0_2 Int)
(assert (and (>= c_0_0_2 0) (<= c_0_0_2 1)))
(declare-const c_0_0_3 Int)
(assert (and (>= c_0_0_3 0) (<= c_0_0_3 1)))
(declare-const c_0_0_4 Int)
(assert (and (>= c_0_0_4 0) (<= c_0_0_4 1)))
(declare-const c_0_1_0 Int)
(assert (and (>= c_0_1_0 0) (<= c_0_1_0 1)))
(declare-const c_0_1_1 Int)
(assert (and (>= c_0_1_1 0) (<= c_0_1_1 1)))
(declare-const c_0_1_2 Int)
(assert (and (>= c_0_1_2 0) (<= c_0_1_2 1)))
(declare-const c_0_1_3 Int)
(assert (and (>= c_0_1_3 0) (<= c_0_1_3 1)))
(declare-const c_0_1_4 Int)
(assert (and (>= c_0_1_4 0) (<= c_0_1_4 1)))
(declare-const c_0_2_0 Int)
(assert (and (>= c_0_2_0 0) (<= c_0_2_0 1)))
(declare-const c_0_2_1 Int)
(assert (and (>= c_0_2_1 0) (<= c_0_2_1 1)))
(declare-const c_0_2_2 Int)
(assert (and (>= c_0_2_2 0) (<= c_0_2_2 1)))
(declare-const c_0_2_3 Int)
(assert (and (>= c_0_2_3 0) (<= c_0_2_3 1)))
(declare-const c_0_2_4 Int)
(assert (and (>= c_0_2_4 0) (<= c_0_2_4 1)))
(declare-const c_0_3_0 Int)
(assert (and (>= c_0_3_0 0) (<= c_0_3_0 1)))
(declare-const c_0_3_1 Int)
(assert (and (>= c_0_3_1 0) (<= c_0_3_1 1)))
(declare-const c_0_3_2 Int)
(assert (and (>= c_0_3_2 0) (<= c_0_3_2 1)))
(declare-const c_0_3_3 Int)
(assert (and (>= c_0_3_3 0) (<= c_0_3_3 1)))
(declare-const c_0_3_4 Int)
(assert (and (>= c_0_3_4 0) (<= c_0_3_4 1)))
(declare-const c_0_4_0 Int)
(assert (and (>= c_0_4_0 0) (<= c_0_4_0 1)))
(declare-const c_0_4_1 Int)
(assert (and (>= c_0_4_1 0) (<= c_0_4_1 1)))
(declare-const c_0_4_2 Int)
(assert (and (>= c_0_4_2 0) (<= c_0_4_2 1)))
(declare-const c_0_4_3 Int)
(assert (and (>= c_0_4_3 0) (<= c_0_4_3 1)))
(declare-const c_0_4_4 Int)
(assert (and (>= c_0_4_4 0) (<= c_0_4_4 1)))
(declare-const c_1_0_0 Int)
(assert (and (>= c_1_0_0 0) (<= c_1_0_0 1)))
(declare-const c_1_0_1 Int)
(assert (and (>= c_1_0_1 0) (<= c_1_0_1 1)))
(declare-const c_1_0_2 Int)
(assert (and (>= c_1_0_2 0) (<= c_1_0_2 1)))
(declare-const c_1_0_3 Int)
(assert (and (>= c_1_0_3 0) (<= c_1_0_3 1)))
(declare-const c_1_0_4 Int)
(assert (and (>= c_1_0_4 0) (<= c_1_0_4 1)))
(declare-const c_1_1_0 Int)
(assert (and (>= c_1_1_0 0) (<= c_1_1_0 1)))
(declare-const c_1_1_1 Int)
(assert (and (>= c_1_1_1 0) (<= c_1_1_1 1)))
(declare-const c_1_1_2 Int)
(assert (and (>= c_1_1_2 0) (<= c_1_1_2 1)))
(declare-const c_1_1_3 Int)
(assert (and (>= c_1_1_3 0) (<= c_1_1_3 1)))
(declare-const c_1_1_4 Int)
(assert (and (>= c_1_1_4 0) (<= c_1_1_4 1)))
(declare-const c_1_2_0 Int)
(assert (and (>= c_1_2_0 0) (<= c_1_2_0 1)))
(declare-const c_1_2_1 Int)
(assert (and (>= c_1_2_1 0) (<= c_1_2_1 1)))
(declare-const c_1_2_2 Int)
(assert (and (>= c_1_2_2 0) (<= c_1_2_2 1)))
(declare-const c_1_2_3 Int)
(assert (and (>= c_1_2_3 0) (<= c_1_2_3 1)))
(declare-const c_1_2_4 Int)
(assert (and (>= c_1_2_4 0) (<= c_1_2_4 1)))
(declare-const c_1_3_0 Int)
(assert (and (>= c_1_3_0 0) (<= c_1_3_0 1)))
(declare-const c_1_3_1 Int)
(assert (and (>= c_1_3_1 0) (<= c_1_3_1 1)))
(declare-const c_1_3_2 Int)
(assert (and (>= c_1_3_2 0) (<= c_1_3_2 1)))
(declare-const c_1_3_3 Int)
(assert (and (>= c_1_3_3 0) (<= c_1_3_3 1)))
(declare-const c_1_3_4 Int)
(assert (and (>= c_1_3_4 0) (<= c_1_3_4 1)))
(declare-const c_1_4_0 Int)
(assert (and (>= c_1_4_0 0) (<= c_1_4_0 1)))
(declare-const c_1_4_1 Int)
(assert (and (>= c_1_4_1 0) (<= c_1_4_1 1)))
(declare-const c_1_4_2 Int)
(assert (and (>= c_1_4_2 0) (<= c_1_4_2 1)))
(declare-const c_1_4_3 Int)
(assert (and (>= c_1_4_3 0) (<= c_1_4_3 1)))
(declare-const c_1_4_4 Int)
(assert (and (>= c_1_4_4 0) (<= c_1_4_4 1)))
(declare-const c_2_0_0 Int)
(assert (and (>= c_2_0_0 0) (<= c_2_0_0 1)))
(declare-const c_2_0_1 Int)
(assert (and (>= c_2_0_1 0) (<= c_2_0_1 1)))
(declare-const c_2_0_2 Int)
(assert (and (>= c_2_0_2 0) (<= c_2_0_2 1)))
(declare-const c_2_0_3 Int)
(assert (and (>= c_2_0_3 0) (<= c_2_0_3 1)))
(declare-const c_2_0_4 Int)
(assert (and (>= c_2_0_4 0) (<= c_2_0_4 1)))
(declare-const c_2_1_0 Int)
(assert (and (>= c_2_1_0 0) (<= c_2_1_0 1)))
(declare-const c_2_1_1 Int)
(assert (and (>= c_2_1_1 0) (<= c_2_1_1 1)))
(declare-const c_2_1_2 Int)
(assert (and (>= c_2_1_2 0) (<= c_2_1_2 1)))
(declare-const c_2_1_3 Int)
(assert (and (>= c_2_1_3 0) (<= c_2_1_3 1)))
(declare-const c_2_1_4 Int)
(assert (and (>= c_2_1_4 0) (<= c_2_1_4 1)))
(declare-const c_2_2_0 Int)
(assert (and (>= c_2_2_0 0) (<= c_2_2_0 1)))
(declare-const c_2_2_1 Int)
(assert (and (>= c_2_2_1 0) (<= c_2_2_1 1)))
(declare-const c_2_2_2 Int)
(assert (and (>= c_2_2_2 0) (<= c_2_2_2 1)))
(declare-const c_2_2_3 Int)
(assert (and (>= c_2_2_3 0) (<= c_2_2_3 1)))
(declare-const c_2_2_4 Int)
(assert (and (>= c_2_2_4 0) (<= c_2_2_4 1)))
(declare-const c_2_3_0 Int)
(assert (and (>= c_2_3_0 0) (<= c_2_3_0 1)))
(declare-const c_2_3_1 Int)
(assert (and (>= c_2_3_1 0) (<= c_2_3_1 1)))
(declare-const c_2_3_2 Int)
(assert (and (>= c_2_3_2 0) (<= c_2_3_2 1)))
(declare-const c_2_3_3 Int)
(assert (and (>= c_2_3_3 0) (<= c_2_3_3 1)))
(declare-const c_2_3_4 Int)
(assert (and (>= c_2_3_4 0) (<= c_2_3_4 1)))
(declare-const c_2_4_0 Int)
(assert (and (>= c_2_4_0 0) (<= c_2_4_0 1)))
(declare-const c_2_4_1 Int)
(assert (and (>= c_2_4_1 0) (<= c_2_4_1 1)))
(declare-const c_2_4_2 Int)
(assert (and (>= c_2_4_2 0) (<= c_2_4_2 1)))
(declare-const c_2_4_3 Int)
(assert (and (>= c_2_4_3 0) (<= c_2_4_3 1)))
(declare-const c_2_4_4 Int)
(assert (and (>= c_2_4_4 0) (<= c_2_4_4 1)))
(declare-const c_3_0_0 Int)
(assert (and (>= c_3_0_0 0) (<= c_3_0_0 1)))
(declare-const c_3_0_1 Int)
(assert (and (>= c_3_0_1 0) (<= c_3_0_1 1)))
(declare-const c_3_0_2 Int)
(assert (and (>= c_3_0_2 0) (<= c_3_0_2 1)))
(declare-const c_3_0_3 Int)
(assert (and (>= c_3_0_3 0) (<= c_3_0_3 1)))
(declare-const c_3_0_4 Int)
(assert (and (>= c_3_0_4 0) (<= c_3_0_4 1)))
(declare-const c_3_1_0 Int)
(assert (and (>= c_3_1_0 0) (<= c_3_1_0 1)))
(declare-const c_3_1_1 Int)
(assert (and (>= c_3_1_1 0) (<= c_3_1_1 1)))
(declare-const c_3_1_2 Int)
(assert (and (>= c_3_1_2 0) (<= c_3_1_2 1)))
(declare-const c_3_1_3 Int)
(assert (and (>= c_3_1_3 0) (<= c_3_1_3 1)))
(declare-const c_3_1_4 Int)
(assert (and (>= c_3_1_4 0) (<= c_3_1_4 1)))
(declare-const c_3_2_0 Int)
(assert (and (>= c_3_2_0 0) (<= c_3_2_0 1)))
(declare-const c_3_2_1 Int)
(assert (and (>= c_3_2_1 0) (<= c_3_2_1 1)))
(declare-const c_3_2_2 Int)
(assert (and (>= c_3_2_2 0) (<= c_3_2_2 1)))
(declare-const c_3_2_3 Int)
(assert (and (>= c_3_2_3 0) (<= c_3_2_3 1)))
(declare-const c_3_2_4 Int)
(assert (and (>= c_3_2_4 0) (<= c_3_2_4 1)))
(declare-const c_3_3_0 Int)
(assert (and (>= c_3_3_0 0) (<= c_3_3_0 1)))
(declare-const c_3_3_1 Int)
(assert (and (>= c_3_3_1 0) (<= c_3_3_1 1)))
(declare-const c_3_3_2 Int)
(assert (and (>= c_3_3_2 0) (<= c_3_3_2 1)))
(declare-const c_3_3_3 Int)
(assert (and (>= c_3_3_3 0) (<= c_3_3_3 1)))
(declare-const c_3_3_4 Int)
(assert (and (>= c_3_3_4 0) (<= c_3_3_4 1)))
(declare-const c_3_4_0 Int)
(assert (and (>= c_3_4_0 0) (<= c_3_4_0 1)))
(declare-const c_3_4_1 Int)
(assert (and (>= c_3_4_1 0) (<= c_3_4_1 1)))
(declare-const c_3_4_2 Int)
(assert (and (>= c_3_4_2 0) (<= c_3_4_2 1)))
(declare-const c_3_4_3 Int)
(assert (and (>= c_3_4_3 0) (<= c_3_4_3 1)))
(declare-const c_3_4_4 Int)
(assert (and (>= c_3_4_4 0) (<= c_3_4_4 1)))
(declare-const c_4_0_0 Int)
(assert (and (>= c_4_0_0 0) (<= c_4_0_0 1)))
(declare-const c_4_0_1 Int)
(assert (and (>= c_4_0_1 0) (<= c_4_0_1 1)))
(declare-const c_4_0_2 Int)
(assert (and (>= c_4_0_2 0) (<= c_4_0_2 1)))
(declare-const c_4_0_3 Int)
(assert (and (>= c_4_0_3 0) (<= c_4_0_3 1)))
(declare-const c_4_0_4 Int)
(assert (and (>= c_4_0_4 0) (<= c_4_0_4 1)))
(declare-const c_4_1_0 Int)
(assert (and (>= c_4_1_0 0) (<= c_4_1_0 1)))
(declare-const c_4_1_1 Int)
(assert (and (>= c_4_1_1 0) (<= c_4_1_1 1)))
(declare-const c_4_1_2 Int)
(assert (and (>= c_4_1_2 0) (<= c_4_1_2 1)))
(declare-const c_4_1_3 Int)
(assert (and (>= c_4_1_3 0) (<= c_4_1_3 1)))
(declare-const c_4_1_4 Int)
(assert (and (>= c_4_1_4 0) (<= c_4_1_4 1)))
(declare-const c_4_2_0 Int)
(assert (and (>= c_4_2_0 0) (<= c_4_2_0 1)))
(declare-const c_4_2_1 Int)
(assert (and (>= c_4_2_1 0) (<= c_4_2_1 1)))
(declare-const c_4_2_2 Int)
(assert (and (>= c_4_2_2 0) (<= c_4_2_2 1)))
(declare-const c_4_2_3 Int)
(assert (and (>= c_4_2_3 0) (<= c_4_2_3 1)))
(declare-const c_4_2_4 Int)
(assert (and (>= c_4_2_4 0) (<= c_4_2_4 1)))
(declare-const c_4_3_0 Int)
(assert (and (>= c_4_3_0 0) (<= c_4_3_0 1)))
(declare-const c_4_3_1 Int)
(assert (and (>= c_4_3_1 0) (<= c_4_3_1 1)))
(declare-const c_4_3_2 Int)
(assert (and (>= c_4_3_2 0) (<= c_4_3_2 1)))
(declare-const c_4_3_3 Int)
(assert (and (>= c_4_3_3 0) (<= c_4_3_3 1)))
(declare-const c_4_3_4 Int)
(assert (and (>= c_4_3_4 0) (<= c_4_3_4 1)))
(declare-const c_4_4_0 Int)
(assert (and (>= c_4_4_0 0) (<= c_4_4_0 1)))
(declare-const c_4_4_1 Int)
(assert (and (>= c_4_4_1 0) (<= c_4_4_1 1)))
(declare-const c_4_4_2 Int)
(assert (and (>= c_4_4_2 0) (<= c_4_4_2 1)))
(declare-const c_4_4_3 Int)
(assert (and (>= c_4_4_3 0) (<= c_4_4_3 1)))
(declare-const c_4_4_4 Int)
(assert (and (>= c_4_4_4 0) (<= c_4_4_4 1)))
(assert (= (+ c_0_0_0 c_0_0_1 c_0_0_2 c_0_0_3 c_0_0_4) 1))
(assert (= (+ c_0_1_0 c_0_1_1 c_0_1_2 c_0_1_3 c_0_1_4) 1))
(assert (= (+ c_0_2_0 c_0_2_1 c_0_2_2 c_0_2_3 c_0_2_4) 1))
(assert (= (+ c_0_3_0 c_0_3_1 c_0_3_2 c_0_3_3 c_0_3_4) 1))
(assert (= (+ c_0_4_0 c_0_4_1 c_0_4_2 c_0_4_3 c_0_4_4) 1))
(assert (= (+ c_1_0_0 c_1_0_1 c_1_0_2 c_1_0_3 c_1_0_4) 1))
(assert (= (+ c_1_1_0 c_1_1_1 c_1_1_2 c_1_1_3 c_1_1_4) 1))
(assert (= (+ c_1_2_0 c_1_2_1 c_1_2_2 c_1_2_3 c_1_2_4) 1))
(assert (= (+ c_1_3_0 c_1_3_1 c_1_3_2 c_1_3_3 c_1_3_4) 1))
(assert (= (+ c_1_4_0 c_1_4_1 c_1_4_2 c_1_4_3 c_1_4_4) 1))
(assert (= (+ c_2_0_0 c_2_0_1 c_2_0_2 c_2_0_3 c_2_0_4) 1))
(assert (= (+ c_2_1_0 c_2_1_1 c_2_1_2 c_2_1_3 c_2_1_4) 1))
(assert (= (+ c_2_2_0 c_2_2_1 c_2_2_2 c_2_2_3 c_2_2_4) 1))
(assert (= (+ c_2_3_0 c_2_3_1 c_2_3_2 c_2_3_3 c_2_3_4) 1))
(assert (= (+ c_2_4_0 c_2_4_1 c_2_4_2 c_2_4_3 c_2_4_4) 1))
(assert (= (+ c_3_0_0 c_3_0_1 c_3_0_2 c_3_0_3 c_3_0_4) 1))
(assert (= (+ c_3_1_0 c_3_1_1 c_3_1_2 c_3_1_3 c_3_1_4) 1))
(assert (= (+ c_3_2_0 c_3_2_1 c_3_2_2 c_3_2_3 c_3_2_4) 1))
(assert (= (+ c_3_3_0 c_3_3_1 c_3_3_2 c_3_3_3 c_3_3_4) 1))
(assert (= (+ c_3_4_0 c_3_4_1 c_3_4_2 c_3_4_3 c_3_4_4) 1))
(assert (= (+ c_4_0_0 c_4_0_1 c_4_0_2 c_4_0_3 c_4_0_4) 1))
(assert (= (+ c_4_1_0 c_4_1_1 c_4_1_2 c_4_1_3 c_4_1_4) 1))
(assert (= (+ c_4_2_0 c_4_2_1 c_4_2_2 c_4_2_3 c_4_2_4) 1))
(assert (= (+ c_4_3_0 c_4_3_1 c_4_3_2 c_4_3_3 c_4_3_4) 1))
(assert (= (+ c_4_4_0 c_4_4_1 c_4_4_2 c_4_4_3 c_4_4_4) 1))
; alldiff_pb c_0_0 c_0_1 c_0_2 c_0_3 c_0_4
(assert (= (+ c_0_0_0 c_0_1_0 c_0_2_0 c_0_3_0 c_0_4_0) 1))
(assert (= (+ c_0_0_1 c_0_1_1 c_0_2_1 c_0_3_1 c_0_4_1) 1))
(assert (= (+ c_0_0_2 c_0_1_2 c_0_2_2 c_0_3_2 c_0_4_2) 1))
(assert (= (+ c_0_0_3 c_0_1_3 c_0_2_3 c_0_3_3 c_0_4_3) 1))
(assert (= (+ c_0_0_4 c_0_1_4 c_0_2_4 c_0_3_4 c_0_4_4) 1))
; alldiff_pb c_1_0 c_1_1 c_1_2 c_1_3 c_1_4
(assert (= (+ c_1_0_0 c_1_1_0 c_1_2_0 c_1_3_0 c_1_4_0) 1))
(assert (= (+ c_1_0_1 c_1_1_1 c_1_2_1 c_1_3_1 c_1_4_1) 1))
(assert (= (+ c_1_0_2 c_1_1_2 c_1_2_2 c_1_3_2 c_1_4_2) 1))
(assert (= (+ c_1_0_3 c_1_1_3 c_1_2_3 c_1_3_3 c_1_4_3) 1))
(assert (= (+ c_1_0_4 c_1_1_4 c_1_2_4 c_1_3_4 c_1_4_4) 1))
; alldiff_pb c_2_0 c_2_1 c_2_2 c_2_3 c_2_4
(assert (= (+ c_2_0_0 c_2_1_0 c_2_2_0 c_2_3_0 c_2_4_0) 1))
(assert (= (+ c_2_0_1 c_2_1_1 c_2_2_1 c_2_3_1 c_2_4_1) 1))
(assert (= (+ c_2_0_2 c_2_1_2 c_2_2_2 c_2_3_2 c_2_4_2) 1))
(assert (= (+ c_2_0_3 c_2_1_3 c_2_2_3 c_2_3_3 c_2_4_3) 1))
(assert (= (+ c_2_0_4 c_2_1_4 c_2_2_4 c_2_3_4 c_2_4_4) 1))
; alldiff_pb c_3_0 c_3_1 c_3_2 c_3_3 c_3_4
(assert (= (+ c_3_0_0 c_3_1_0 c_3_2_0 c_3_3_0 c_3_4_0) 1))
(assert (= (+ c_3_0_1 c_3_1_1 c_3_2_1 c_3_3_1 c_3_4_1) 1))
(assert (= (+ c_3_0_2 c_3_1_2 c_3_2_2 c_3_3_2 c_3_4_2) 1))
(assert (= (+ c_3_0_3 c_3_1_3 c_3_2_3 c_3_3_3 c_3_4_3) 1))
(assert (= (+ c_3_0_4 c_3_1_4 c_3_2_4 c_3_3_4 c_3_4_4) 1))
; alldiff_pb c_4_0 c_4_1 c_4_2 c_4_3 c_4_4
(assert (= (+ c_4_0_0 c_4_1_0 c_4_2_0 c_4_3_0 c_4_4_0) 1))
(assert (= (+ c_4_0_1 c_4_1_1 c_4_2_1 c_4_3_1 c_4_4_1) 1))
(assert (= (+ c_4_0_2 c_4_1_2 c_4_2_2 c_4_3_2 c_4_4_2) 1))
(assert (= (+ c_4_0_3 c_4_1_3 c_4_2_3 c_4_3_3 c_4_4_3) 1))
(assert (= (+ c_4_0_4 c_4_1_4 c_4_2_4 c_4_3_4 c_4_4_4) 1))
; alldiff_pb c_0_0 c_1_0 c_2_0 c_3_0 c_4_0
(assert (= (+ c_0_0_0 c_1_0_0 c_2_0_0 c_3_0_0 c_4_0_0) 1))
(assert (= (+ c_0_0_1 c_1_0_1 c_2_0_1 c_3_0_1 c_4_0_1) 1))
(assert (= (+ c_0_0_2 c_1_0_2 c_2_0_2 c_3_0_2 c_4_0_2) 1))
(assert (= (+ c_0_0_3 c_1_0_3 c_2_0_3 c_3_0_3 c_4_0_3) 1))
(assert (= (+ c_0_0_4 c_1_0_4 c_2_0_4 c_3_0_4 c_4_0_4) 1))
; alldiff_pb c_0_1 c_1_1 c_2_1 c_3_1 c_4_1
(assert (= (+ c_0_1_0 c_1_1_0 c_2_1_0 c_3_1_0 c_4_1_0) 1))
(assert (= (+ c_0_1_1 c_1_1_1 c_2_1_1 c_3_1_1 c_4_1_1) 1))
(assert (= (+ c_0_1_2 c_1_1_2 c_2_1_2 c_3_1_2 c_4_1_2) 1))
(assert (= (+ c_0_1_3 c_1_1_3 c_2_1_3 c_3_1_3 c_4_1_3) 1))
(assert (= (+ c_0_1_4 c_1_1_4 c_2_1_4 c_3_1_4 c_4_1_4) 1))
; alldiff_pb c_0_2 c_1_2 c_2_2 c_3_2 c_4_2
(assert (= (+ c_0_2_0 c_1_2_0 c_2_2_0 c_3_2_0 c_4_2_0) 1))
(assert (= (+ c_0_2_1 c_1_2_1 c_2_2_1 c_3_2_1 c_4_2_1) 1))
(assert (= (+ c_0_2_2 c_1_2_2 c_2_2_2 c_3_2_2 c_4_2_2) 1))
(assert (= (+ c_0_2_3 c_1_2_3 c_2_2_3 c_3_2_3 c_4_2_3) 1))
(assert (= (+ c_0_2_4 c_1_2_4 c_2_2_4 c_3_2_4 c_4_2_4) 1))
; alldiff_pb c_0_3 c_1_3 c_2_3 c_3_3 c_4_3
(assert (= (+ c_0_3_0 c_1_3_0 c_2_3_0 c_3_3_0 c_4_3_0) 1))
(assert (= (+ c_0_3_1 c_1_3_1 c_2_3_1 c_3_3_1 c_4_3_1) 1))
(assert (= (+ c_0_3_2 c_1_3_2 c_2_3_2 c_3_3_2 c_4_3_2) 1))
(assert (= (+ c_0_3_3 c_1_3_3 c_2_3_3 c_3_3_3 c_4_3_3) 1))
(assert (= (+ c_0_3_4 c_1_3_4 c_2_3_4 c_3_3_4 c_4_3_4) 1))
; alldiff_pb c_0_4 c_1_4 c_2_4 c_3_4 c_4_4
(assert (= (+ c_0_4_0 c_1_4_0 c_2_4_0 c_3_4_0 c_4_4_0) 1))
(assert (= (+ c_0_4_1 c_1_4_1 c_2_4_1 c_3_4_1 c_4_4_1) 1))
(assert (= (+ c_0_4_2 c_1_4_2 c_2_4_2 c_3_4_2 c_4_4_2) 1))
(assert (= (+ c_0_4_3 c_1_4_3 c_2_4_3 c_3_4_3 c_4_4_3) 1))
(assert (= (+ c_0_4_4 c_1_4_4 c_2_4_4 c_3_4_4 c_4_4_4) 1))
; alldiff_pb c_0_0
; alldiff_pb c_0_1 c_1_0
(assert (<= (+ c_0_1_0 c_1_0_0) 1))
(assert (<= (+ c_0_1_1 c_1_0_1) 1))
(assert (<= (+ c_0_1_2 c_1_0_2) 1))
(assert (<= (+ c_0_1_3 c_1_0_3) 1))
(assert (<= (+ c_0_1_4 c_1_0_4) 1))
; alldiff_pb c_0_2 c_1_1 c_2_0
(assert (<= (+ c_0_2_0 c_1_1_0 c_2_0_0) 1))
(assert (<= (+ c_0_2_1 c_1_1_1 c_2_0_1) 1))
(assert (<= (+ c_0_2_2 c_1_1_2 c_2_0_2) 1))
(assert (<= (+ c_0_2_3 c_1_1_3 c_2_0_3) 1))
(assert (<= (+ c_0_2_4 c_1_1_4 c_2_0_4) 1))
; alldiff_pb c_0_3 c_1_2 c_2_1 c_3_0
(assert (<= (+ c_0_3_0 c_1_2_0 c_2_1_0 c_3_0_0) 1))
(assert (<= (+ c_0_3_1 c_1_2_1 c_2_1_1 c_3_0_1) 1))
(assert (<= (+ c_0_3_2 c_1_2_2 c_2_1_2 c_3_0_2) 1))
(assert (<= (+ c_0_3_3 c_1_2_3 c_2_1_3 c_3_0_3) 1))
(assert (<= (+ c_0_3_4 c_1_2_4 c_2_1_4 c_3_0_4) 1))
; alldiff_pb c_0_4 c_1_3 c_2_2 c_3_1 c_4_0
(assert (= (+ c_0_4_0 c_1_3_0 c_2_2_0 c_3_1_0 c_4_0_0) 1))
(assert (= (+ c_0_4_1 c_1_3_1 c_2_2_1 c_3_1_1 c_4_0_1) 1))
(assert (= (+ c_0_4_2 c_1_3_2 c_2_2_2 c_3_1_2 c_4_0_2) 1))
(assert (= (+ c_0_4_3 c_1_3_3 c_2_2_3 c_3_1_3 c_4_0_3) 1))
(assert (= (+ c_0_4_4 c_1_3_4 c_2_2_4 c_3_1_4 c_4_0_4) 1))
; alldiff_pb c_1_4 c_2_3 c_3_2 c_4_1
(assert (<= (+ c_1_4_0 c_2_3_0 c_3_2_0 c_4_1_0) 1))
(assert (<= (+ c_1_4_1 c_2_3_1 c_3_2_1 c_4_1_1) 1))
(assert (<= (+ c_1_4_2 c_2_3_2 c_3_2_2 c_4_1_2) 1))
(assert (<= (+ c_1_4_3 c_2_3_3 c_3_2_3 c_4_1_3) 1))
(assert (<= (+ c_1_4_4 c_2_3_4 c_3_2_4 c_4_1_4) 1))
; alldiff_pb c_2_4 c_3_3 c_4_2
(assert (<= (+ c_2_4_0 c_3_3_0 c_4_2_0) 1))
(assert (<= (+ c_2_4_1 c_3_3_1 c_4_2_1) 1))
(assert (<= (+ c_2_4_2 c_3_3_2 c_4_2_2) 1))
(assert (<= (+ c_2_4_3 c_3_3_3 c_4_2_3) 1))
(assert (<= (+ c_2_4_4 c_3_3_4 c_4_2_4) 1))
; alldiff_pb c_3_4 c_4_3
(assert (<= (+ c_3_4_0 c_4_3_0) 1))
(assert (<= (+ c_3_4_1 c_4_3_1) 1))
(assert (<= (+ c_3_4_2 c_4_3_2) 1))
(assert (<= (+ c_3_4_3 c_4_3_3) 1))
(assert (<= (+ c_3_4_4 c_4_3_4) 1))
; alldiff_pb c_4_4
; alldiff_pb c_0_4
; alldiff_pb c_0_3 c_1_4
(assert (<= (+ c_0_3_0 c_1_4_0) 1))
(assert (<= (+ c_0_3_1 c_1_4_1) 1))
(assert (<= (+ c_0_3_2 c_1_4_2) 1))
(assert (<= (+ c_0_3_3 c_1_4_3) 1))
(assert (<= (+ c_0_3_4 c_1_4_4) 1))
; alldiff_pb c_0_2 c_1_3 c_2_4
(assert (<= (+ c_0_2_0 c_1_3_0 c_2_4_0) 1))
(assert (<= (+ c_0_2_1 c_1_3_1 c_2_4_1) 1))
(assert (<= (+ c_0_2_2 c_1_3_2 c_2_4_2) 1))
(assert (<= (+ c_0_2_3 c_1_3_3 c_2_4_3) 1))
(assert (<= (+ c_0_2_4 c_1_3_4 c_2_4_4) 1))
; alldiff_pb c_0_1 c_1_2 c_2_3 c_3_4
(assert (<= (+ c_0_1_0 c_1_2_0 c_2_3_0 c_3_4_0) 1))
(assert (<= (+ c_0_1_1 c_1_2_1 c_2_3_1 c_3_4_1) 1))
(assert (<= (+ c_0_1_2 c_1_2_2 c_2_3_2 c_3_4_2) 1))
(assert (<= (+ c_0_1_3 c_1_2_3 c_2_3_3 c_3_4_3) 1))
(assert (<= (+ c_0_1_4 c_1_2_4 c_2_3_4 c_3_4_4) 1))
; alldiff_pb c_0_0 c_1_1 c_2_2 c_3_3 c_4_4
(assert (= (+ c_0_0_0 c_1_1_0 c_2_2_0 c_3_3_0 c_4_4_0) 1))
(assert (= (+ c_0_0_1 c_1_1_1 c_2_2_1 c_3_3_1 c_4_4_1) 1))
(assert (= (+ c_0_0_2 c_1_1_2 c_2_2_2 c_3_3_2 c_4_4_2) 1))
(assert (= (+ c_0_0_3 c_1_1_3 c_2_2_3 c_3_3_3 c_4_4_3) 1))
(assert (= (+ c_0_0_4 c_1_1_4 c_2_2_4 c_3_3_4 c_4_4_4) 1))
; alldiff_pb c_1_0 c_2_1 c_3_2 c_4_3
(assert (<= (+ c_1_0_0 c_2_1_0 c_3_2_0 c_4_3_0) 1))
(assert (<= (+ c_1_0_1 c_2_1_1 c_3_2_1 c_4_3_1) 1))
(assert (<= (+ c_1_0_2 c_2_1_2 c_3_2_2 c_4_3_2) 1))
(assert (<= (+ c_1_0_3 c_2_1_3 c_3_2_3 c_4_3_3) 1))
(assert (<= (+ c_1_0_4 c_2_1_4 c_3_2_4 c_4_3_4) 1))
; alldiff_pb c_2_0 c_3_1 c_4_2
(assert (<= (+ c_2_0_0 c_3_1_0 c_4_2_0) 1))
(assert (<= (+ c_2_0_1 c_3_1_1 c_4_2_1) 1))
(assert (<= (+ c_2_0_2 c_3_1_2 c_4_2_2) 1))
(assert (<= (+ c_2_0_3 c_3_1_3 c_4_2_3) 1))
(assert (<= (+ c_2_0_4 c_3_1_4 c_4_2_4) 1))
; alldiff_pb c_3_0 c_4_1
(assert (<= (+ c_3_0_0 c_4_1_0) 1))
(assert (<= (+ c_3_0_1 c_4_1_1) 1))
(assert (<= (+ c_3_0_2 c_4_1_2) 1))
(assert (<= (+ c_3_0_3 c_4_1_3) 1))
(assert (<= (+ c_3_0_4 c_4_1_4) 1))
; alldiff_pb c_4_0
(assert (= c_0_0_0 1))
(assert (= c_0_1_1 1))
(assert (= c_0_2_2 1))
(assert (= c_0_3_3 1))
(assert (= c_0_4_4 1))
(check-sat)
(get-model)
(exit)
